c File: data_files/evolved_graphs/g0243.col
c
c Auto generated graph
c
p edge 100 1499
e 1 2
e 1 3
e 1 4
e 1 5
e 1 9
e 1 10
e 1 11
e 1 12
e 1 14
e 1 18
e 1 19
e 1 20
e 1 23
e 1 24
e 1 26
e 1 35
e 2 3
e 2 4
e 2 6
e 2 7
e 2 11
e 2 12
e 2 14
e 2 21
e 2 24
e 2 26
e 2 51
e 2 58
e 2 96
e 3 4
e 3 7
e 3 9
e 3 11
e 3 15
e 3 17
e 3 20
e 3 21
e 3 23
e 3 24
e 3 45
e 3 75
e 4 5
e 4 6
e 4 8
e 4 11
e 4 12
e 4 13
e 4 15
e 4 16
e 4 18
e 4 19
e 4 20
e 4 25
e 4 32
e 4 49
e 4 72
e 4 78
e 4 96
e 5 6
e 5 7
e 5 8
e 5 10
e 5 12
e 5 15
e 5 19
e 5 21
e 5 23
e 5 26
e 5 38
e 5 46
e 5 88
e 6 7
e 6 8
e 6 10
e 6 15
e 6 16
e 6 17
e 6 18
e 6 19
e 6 20
e 6 21
e 6 22
e 6 23
e 6 24
e 6 47
e 6 70
e 7 8
e 7 12
e 7 15
e 7 18
e 7 21
e 7 24
e 7 25
e 7 26
e 7 78
e 7 83
e 8 9
e 8 12
e 8 13
e 8 14
e 8 16
e 8 17
e 8 18
e 8 19
e 8 22
e 8 25
e 8 35
e 8 41
e 8 51
e 8 77
e 8 92
e 9 12
e 9 14
e 9 16
e 9 17
e 9 18
e 9 23
e 9 24
e 9 26
e 9 31
e 9 57
e 9 77
e 9 95
e 10 11
e 10 12
e 10 13
e 10 22
e 10 23
e 10 25
e 10 26
e 10 48
e 10 51
e 10 68
e 11 13
e 11 14
e 11 15
e 11 16
e 11 18
e 11 19
e 11 21
e 11 22
e 11 23
e 11 24
e 11 26
e 11 43
e 11 59
e 11 63
e 12 13
e 12 14
e 12 17
e 12 19
e 12 32
e 12 44
e 12 57
e 12 76
e 13 15
e 13 17
e 13 19
e 13 22
e 13 23
e 13 25
e 13 26
e 14 20
e 14 21
e 14 23
e 14 24
e 14 25
e 14 26
e 14 56
e 14 58
e 14 59
e 14 81
e 14 99
e 15 17
e 15 19
e 15 22
e 15 24
e 15 35
e 15 62
e 15 77
e 16 17
e 16 18
e 16 19
e 16 23
e 16 24
e 17 18
e 17 19
e 17 20
e 17 21
e 17 22
e 17 24
e 17 25
e 17 28
e 17 45
e 17 60
e 17 63
e 17 84
e 18 22
e 18 23
e 18 24
e 18 25
e 18 29
e 18 35
e 18 40
e 18 58
e 19 20
e 19 21
e 19 22
e 19 23
e 19 37
e 19 51
e 19 71
e 19 76
e 19 97
e 20 21
e 20 22
e 20 25
e 20 27
e 20 38
e 20 44
e 20 48
e 20 64
e 20 69
e 20 73
e 20 89
e 21 23
e 21 24
e 21 25
e 22 23
e 22 25
e 22 27
e 22 38
e 22 45
e 22 72
e 22 74
e 22 90
e 22 95
e 23 24
e 23 25
e 23 26
e 23 35
e 23 37
e 23 53
e 23 70
e 23 81
e 24 25
e 24 26
e 24 37
e 24 42
e 24 55
e 24 61
e 24 72
e 24 73
e 25 28
e 25 53
e 25 82
e 26 36
e 26 42
e 26 45
e 26 56
e 26 89
e 26 90
e 27 28
e 27 29
e 27 30
e 27 33
e 27 34
e 27 35
e 27 37
e 27 40
e 27 44
e 27 45
e 27 46
e 27 48
e 27 49
e 27 52
e 27 54
e 27 55
e 27 56
e 27 57
e 27 58
e 27 64
e 27 66
e 27 69
e 27 72
e 27 75
e 27 78
e 27 82
e 27 83
e 27 84
e 27 85
e 27 87
e 27 88
e 27 92
e 27 93
e 28 29
e 28 31
e 28 32
e 28 33
e 28 34
e 28 36
e 28 37
e 28 38
e 28 40
e 28 42
e 28 50
e 28 51
e 28 53
e 28 54
e 28 58
e 28 59
e 28 61
e 28 64
e 28 67
e 28 71
e 28 72
e 28 73
e 28 78
e 28 80
e 28 86
e 28 87
e 28 89
e 28 90
e 28 91
e 28 92
e 28 93
e 28 95
e 28 99
e 29 32
e 29 34
e 29 36
e 29 37
e 29 38
e 29 41
e 29 44
e 29 46
e 29 48
e 29 50
e 29 53
e 29 57
e 29 59
e 29 62
e 29 67
e 29 68
e 29 71
e 29 73
e 29 75
e 29 76
e 29 82
e 29 84
e 29 89
e 29 90
e 29 93
e 29 96
e 30 33
e 30 38
e 30 40
e 30 42
e 30 47
e 30 48
e 30 49
e 30 51
e 30 52
e 30 53
e 30 54
e 30 55
e 30 56
e 30 60
e 30 61
e 30 62
e 30 63
e 30 65
e 30 66
e 30 67
e 30 68
e 30 69
e 30 72
e 30 73
e 30 76
e 30 81
e 30 82
e 30 83
e 30 84
e 30 86
e 30 87
e 30 92
e 30 93
e 30 98
e 31 33
e 31 34
e 31 35
e 31 36
e 31 38
e 31 40
e 31 41
e 31 43
e 31 45
e 31 46
e 31 49
e 31 50
e 31 52
e 31 54
e 31 55
e 31 59
e 31 61
e 31 62
e 31 63
e 31 64
e 31 66
e 31 69
e 31 70
e 31 72
e 31 75
e 31 77
e 31 82
e 31 83
e 31 85
e 31 87
e 31 88
e 31 90
e 31 91
e 31 93
e 31 94
e 31 96
e 31 97
e 31 99
e 32 33
e 32 36
e 32 37
e 32 39
e 32 41
e 32 46
e 32 52
e 32 54
e 32 55
e 32 58
e 32 60
e 32 62
e 32 63
e 32 66
e 32 67
e 32 69
e 32 71
e 32 72
e 32 73
e 32 76
e 32 77
e 32 78
e 32 80
e 32 82
e 32 87
e 32 93
e 32 98
e 32 99
e 32 100
e 33 35
e 33 36
e 33 38
e 33 39
e 33 41
e 33 42
e 33 45
e 33 46
e 33 50
e 33 53
e 33 54
e 33 57
e 33 58
e 33 59
e 33 60
e 33 61
e 33 63
e 33 67
e 33 69
e 33 70
e 33 75
e 33 77
e 33 79
e 33 80
e 33 81
e 33 84
e 33 88
e 33 91
e 33 94
e 33 95
e 33 96
e 33 98
e 33 100
e 34 35
e 34 36
e 34 37
e 34 39
e 34 42
e 34 43
e 34 44
e 34 47
e 34 49
e 34 53
e 34 55
e 34 56
e 34 57
e 34 58
e 34 63
e 34 64
e 34 67
e 34 69
e 34 71
e 34 72
e 34 74
e 34 76
e 34 77
e 34 80
e 34 83
e 34 84
e 34 90
e 34 94
e 34 96
e 34 99
e 34 100
e 35 36
e 35 37
e 35 38
e 35 41
e 35 44
e 35 45
e 35 47
e 35 49
e 35 50
e 35 51
e 35 52
e 35 53
e 35 60
e 35 62
e 35 63
e 35 64
e 35 71
e 35 73
e 35 74
e 35 78
e 35 79
e 35 80
e 35 81
e 35 82
e 35 83
e 35 91
e 35 95
e 35 100
e 36 38
e 36 39
e 36 41
e 36 43
e 36 44
e 36 49
e 36 50
e 36 53
e 36 56
e 36 57
e 36 58
e 36 60
e 36 63
e 36 65
e 36 66
e 36 67
e 36 68
e 36 72
e 36 75
e 36 76
e 36 78
e 36 80
e 36 83
e 36 84
e 36 87
e 36 88
e 36 89
e 36 98
e 37 41
e 37 42
e 37 43
e 37 46
e 37 47
e 37 48
e 37 49
e 37 51
e 37 52
e 37 54
e 37 58
e 37 70
e 37 72
e 37 76
e 37 77
e 37 78
e 37 80
e 37 83
e 37 86
e 37 88
e 37 89
e 37 94
e 37 98
e 37 99
e 38 44
e 38 45
e 38 46
e 38 49
e 38 50
e 38 51
e 38 52
e 38 55
e 38 57
e 38 58
e 38 60
e 38 63
e 38 65
e 38 66
e 38 84
e 38 85
e 38 89
e 38 90
e 38 92
e 38 93
e 38 96
e 38 100
e 39 40
e 39 41
e 39 42
e 39 49
e 39 50
e 39 53
e 39 59
e 39 61
e 39 62
e 39 64
e 39 65
e 39 67
e 39 73
e 39 74
e 39 77
e 39 78
e 39 80
e 39 82
e 39 83
e 39 85
e 39 87
e 39 89
e 39 92
e 39 93
e 39 96
e 39 97
e 39 98
e 39 99
e 40 41
e 40 42
e 40 44
e 40 46
e 40 47
e 40 48
e 40 53
e 40 54
e 40 59
e 40 63
e 40 64
e 40 66
e 40 67
e 40 68
e 40 69
e 40 71
e 40 75
e 40 76
e 40 77
e 40 79
e 40 82
e 40 84
e 40 90
e 40 91
e 40 94
e 40 95
e 40 96
e 40 100
e 41 42
e 41 43
e 41 45
e 41 46
e 41 47
e 41 49
e 41 54
e 41 55
e 41 56
e 41 58
e 41 59
e 41 60
e 41 61
e 41 64
e 41 70
e 41 73
e 41 75
e 41 76
e 41 80
e 41 85
e 41 90
e 41 92
e 41 93
e 41 94
e 41 96
e 41 97
e 42 43
e 42 44
e 42 45
e 42 46
e 42 48
e 42 54
e 42 55
e 42 61
e 42 63
e 42 65
e 42 70
e 42 75
e 42 77
e 42 78
e 42 83
e 42 89
e 42 90
e 42 91
e 42 94
e 42 97
e 42 98
e 42 99
e 42 100
e 43 48
e 43 54
e 43 55
e 43 58
e 43 59
e 43 60
e 43 61
e 43 62
e 43 63
e 43 64
e 43 65
e 43 67
e 43 69
e 43 78
e 43 82
e 43 83
e 43 84
e 43 85
e 43 86
e 43 87
e 43 90
e 43 96
e 43 97
e 43 98
e 43 99
e 43 100
e 44 45
e 44 50
e 44 51
e 44 53
e 44 56
e 44 57
e 44 61
e 44 62
e 44 63
e 44 65
e 44 66
e 44 69
e 44 70
e 44 72
e 44 73
e 44 74
e 44 76
e 44 78
e 44 79
e 44 81
e 44 82
e 44 83
e 44 85
e 44 88
e 44 90
e 44 95
e 44 100
e 45 46
e 45 47
e 45 48
e 45 50
e 45 53
e 45 54
e 45 57
e 45 58
e 45 59
e 45 61
e 45 62
e 45 67
e 45 74
e 45 75
e 45 82
e 45 85
e 45 86
e 45 87
e 45 90
e 45 94
e 45 95
e 45 96
e 45 97
e 45 98
e 45 99
e 46 49
e 46 50
e 46 51
e 46 52
e 46 53
e 46 54
e 46 56
e 46 58
e 46 59
e 46 60
e 46 62
e 46 64
e 46 65
e 46 67
e 46 69
e 46 72
e 46 73
e 46 74
e 46 75
e 46 77
e 46 78
e 46 80
e 46 81
e 46 84
e 46 87
e 46 88
e 46 90
e 46 91
e 46 94
e 46 97
e 46 99
e 47 49
e 47 52
e 47 55
e 47 56
e 47 59
e 47 60
e 47 62
e 47 63
e 47 64
e 47 67
e 47 68
e 47 69
e 47 70
e 47 74
e 47 75
e 47 76
e 47 77
e 47 78
e 47 79
e 47 86
e 47 88
e 47 91
e 47 92
e 47 93
e 47 98
e 48 50
e 48 51
e 48 54
e 48 55
e 48 56
e 48 57
e 48 64
e 48 66
e 48 68
e 48 69
e 48 70
e 48 72
e 48 76
e 48 77
e 48 78
e 48 80
e 48 81
e 48 82
e 48 83
e 48 84
e 48 89
e 48 91
e 48 92
e 48 93
e 48 94
e 48 96
e 49 52
e 49 53
e 49 54
e 49 56
e 49 62
e 49 63
e 49 64
e 49 67
e 49 73
e 49 74
e 49 78
e 49 80
e 49 81
e 49 82
e 49 84
e 49 85
e 49 86
e 49 88
e 49 89
e 49 90
e 49 94
e 49 96
e 49 98
e 49 99
e 49 100
e 50 51
e 50 57
e 50 58
e 50 60
e 50 61
e 50 62
e 50 64
e 50 66
e 50 71
e 50 72
e 50 75
e 50 77
e 50 78
e 50 79
e 50 84
e 50 87
e 50 88
e 50 91
e 50 92
e 50 93
e 50 94
e 50 97
e 50 98
e 50 99
e 51 53
e 51 57
e 51 60
e 51 62
e 51 63
e 51 64
e 51 69
e 51 71
e 51 72
e 51 75
e 51 77
e 51 78
e 51 81
e 51 85
e 51 86
e 51 88
e 51 89
e 51 92
e 51 93
e 51 94
e 51 98
e 51 99
e 52 57
e 52 59
e 52 60
e 52 62
e 52 63
e 52 66
e 52 68
e 52 71
e 52 72
e 52 76
e 52 77
e 52 81
e 52 88
e 52 90
e 52 94
e 52 98
e 53 56
e 53 57
e 53 64
e 53 67
e 53 69
e 53 71
e 53 73
e 53 74
e 53 79
e 53 80
e 53 84
e 53 85
e 53 86
e 53 89
e 53 90
e 53 92
e 53 95
e 53 97
e 53 98
e 53 100
e 54 57
e 54 58
e 54 59
e 54 60
e 54 61
e 54 62
e 54 64
e 54 66
e 54 67
e 54 70
e 54 79
e 54 80
e 54 81
e 54 82
e 54 84
e 54 87
e 54 88
e 54 89
e 54 91
e 54 92
e 54 93
e 54 94
e 54 98
e 55 56
e 55 57
e 55 59
e 55 61
e 55 63
e 55 64
e 55 65
e 55 66
e 55 72
e 55 75
e 55 77
e 55 78
e 55 82
e 55 83
e 55 85
e 55 86
e 55 90
e 55 91
e 55 93
e 55 94
e 55 95
e 55 97
e 55 100
e 56 59
e 56 62
e 56 64
e 56 65
e 56 66
e 56 67
e 56 69
e 56 71
e 56 75
e 56 76
e 56 79
e 56 80
e 56 82
e 56 83
e 56 84
e 56 87
e 56 90
e 56 94
e 56 100
e 57 59
e 57 62
e 57 64
e 57 66
e 57 69
e 57 70
e 57 72
e 57 73
e 57 74
e 57 75
e 57 77
e 57 78
e 57 79
e 57 82
e 57 83
e 57 85
e 57 86
e 57 87
e 57 92
e 57 93
e 57 95
e 57 96
e 57 97
e 57 98
e 58 61
e 58 64
e 58 65
e 58 68
e 58 69
e 58 71
e 58 74
e 58 75
e 58 77
e 58 78
e 58 79
e 58 81
e 58 82
e 58 85
e 58 92
e 58 94
e 58 95
e 58 97
e 58 100
e 59 60
e 59 62
e 59 63
e 59 64
e 59 67
e 59 68
e 59 69
e 59 70
e 59 72
e 59 74
e 59 80
e 59 82
e 59 83
e 59 84
e 59 88
e 59 92
e 59 94
e 59 95
e 59 96
e 59 97
e 59 98
e 59 99
e 60 63
e 60 64
e 60 65
e 60 66
e 60 68
e 60 69
e 60 70
e 60 71
e 60 73
e 60 74
e 60 77
e 60 78
e 60 81
e 60 82
e 60 84
e 60 85
e 60 86
e 60 91
e 60 92
e 60 93
e 60 94
e 60 95
e 60 97
e 61 68
e 61 69
e 61 70
e 61 71
e 61 75
e 61 79
e 61 81
e 61 82
e 61 83
e 61 85
e 61 87
e 61 88
e 61 89
e 61 91
e 61 92
e 61 93
e 61 95
e 62 68
e 62 69
e 62 70
e 62 76
e 62 85
e 62 87
e 62 91
e 62 92
e 62 94
e 62 95
e 62 96
e 63 65
e 63 67
e 63 70
e 63 71
e 63 72
e 63 73
e 63 75
e 63 77
e 63 78
e 63 79
e 63 80
e 63 82
e 63 83
e 63 86
e 63 88
e 63 89
e 63 91
e 63 92
e 63 95
e 64 65
e 64 66
e 64 67
e 64 69
e 64 73
e 64 75
e 64 80
e 64 81
e 64 87
e 64 89
e 64 93
e 64 96
e 64 97
e 64 99
e 64 100
e 65 67
e 65 70
e 65 72
e 65 73
e 65 80
e 65 81
e 65 83
e 65 85
e 65 86
e 65 87
e 65 88
e 65 89
e 65 90
e 65 92
e 65 98
e 65 100
e 66 67
e 66 70
e 66 71
e 66 72
e 66 75
e 66 77
e 66 78
e 66 80
e 66 84
e 66 85
e 66 87
e 66 88
e 66 90
e 66 91
e 66 92
e 66 97
e 66 98
e 67 70
e 67 72
e 67 75
e 67 77
e 67 78
e 67 80
e 67 85
e 67 87
e 67 88
e 67 91
e 67 93
e 67 94
e 67 97
e 67 99
e 67 100
e 68 73
e 68 74
e 68 78
e 68 83
e 68 89
e 68 91
e 68 92
e 68 94
e 68 97
e 68 99
e 69 71
e 69 72
e 69 75
e 69 76
e 69 82
e 69 87
e 69 91
e 69 93
e 69 94
e 69 98
e 70 74
e 70 76
e 70 77
e 70 79
e 70 81
e 70 83
e 70 84
e 70 85
e 70 87
e 70 90
e 70 91
e 71 72
e 71 73
e 71 76
e 71 77
e 71 78
e 71 79
e 71 81
e 71 82
e 71 87
e 71 90
e 71 92
e 71 93
e 71 94
e 71 97
e 71 99
e 71 100
e 72 74
e 72 83
e 72 84
e 72 89
e 72 97
e 72 100
e 73 75
e 73 76
e 73 81
e 73 83
e 73 84
e 73 89
e 73 90
e 73 92
e 73 93
e 73 95
e 73 96
e 73 97
e 73 98
e 74 76
e 74 77
e 74 78
e 74 81
e 74 82
e 74 83
e 74 85
e 74 87
e 74 91
e 74 92
e 74 97
e 74 100
e 75 76
e 75 80
e 75 82
e 75 83
e 75 85
e 75 86
e 75 87
e 75 89
e 75 90
e 75 91
e 75 92
e 75 93
e 75 95
e 75 100
e 76 77
e 76 80
e 76 82
e 76 85
e 76 86
e 76 87
e 76 88
e 76 92
e 76 97
e 76 98
e 76 99
e 76 100
e 77 80
e 77 84
e 77 86
e 77 87
e 77 88
e 77 89
e 77 90
e 77 92
e 77 93
e 77 94
e 77 96
e 77 97
e 77 98
e 77 99
e 78 79
e 78 80
e 78 82
e 78 86
e 78 91
e 78 93
e 78 94
e 78 97
e 78 99
e 78 100
e 79 82
e 79 83
e 79 84
e 79 85
e 79 87
e 79 88
e 79 89
e 79 90
e 79 91
e 79 92
e 79 95
e 79 100
e 80 83
e 80 84
e 80 85
e 80 86
e 80 88
e 80 89
e 80 90
e 80 91
e 80 92
e 80 93
e 80 95
e 80 98
e 80 99
e 80 100
e 81 82
e 81 91
e 81 92
e 81 94
e 81 96
e 81 98
e 81 99
e 82 84
e 82 86
e 82 89
e 82 91
e 82 94
e 82 95
e 82 98
e 83 84
e 83 85
e 83 86
e 83 89
e 83 91
e 83 92
e 83 95
e 83 96
e 83 97
e 83 98
e 83 99
e 83 100
e 84 87
e 84 89
e 84 91
e 84 92
e 84 93
e 84 96
e 84 98
e 85 86
e 85 87
e 85 90
e 85 98
e 85 100
e 86 87
e 86 89
e 86 90
e 86 93
e 86 99
e 86 100
e 87 92
e 87 94
e 87 97
e 87 98
e 87 99
e 87 100
e 88 90
e 88 91
e 88 92
e 88 96
e 88 98
e 88 99
e 89 91
e 89 92
e 89 93
e 89 94
e 89 95
e 89 96
e 89 98
e 89 99
e 90 92
e 90 94
e 90 95
e 90 96
e 90 97
e 91 93
e 91 95
e 91 99
e 92 93
e 92 95
e 92 96
e 92 97
e 92 99
e 92 100
e 93 96
e 93 97
e 94 95
e 94 97
e 95 97
e 95 98
e 96 97
e 96 100
e 97 98
e 97 99
e 98 99
